c A SAT instance generated from a 3-CNF formula that had 14 clauses and 7 variables
p cnf 7 14
1 5 -4 0
-3 -5 -1 0
-4 7 -5 0
6 2 -3 0
-2 3 4 0
-1 2 3 0
-1 3 -2 0
-5 1 2 0
-6 1 3 0
6 -4 -5 0
1 6 -7 0
6 2 4 0
-6 4 -7 0
-5 -7 6 0
